Minimize
 obj: - 16 x_0_0 - 17 x_1_0 - 17 x_2_0 - 19 x_3_0 - 18 x_4_0 - 16 x_5_0 
 - 17 x_6_0 - 19 x_7_0 

Subject To 
 knapsack_0: + 3 x_0_0 + 2 x_1_0 + 5 x_2_0 + 1 x_3_0 + 4 x_4_0 + 4 x_5_0 
 + 1 x_6_0 + 4 x_7_0  <= 9.0

Bounds

Binary
 x_0_0 x_1_0 x_2_0 x_3_0 x_4_0 x_5_0 x_6_0 x_7_0
General

End